% demand
num_movements = 20;
loading_factor = [1350, 1300, 1300, 1100, 1050, 850, 1900, 1150, 950, 1750, 950, 1300, 1100, 1150, 950, 1350, 800, 1350, 1950, 1050];
pickup_time = [0, 0, 2, 2, 2, 2, 2, 2, 2, 2, 2, 3, 3, 3, 3, 3, 4, 4, 5, 5];
delivery_time = [2, 1, 3, 3, 3, 3, 3, 5, 3, 3, 3, 6, 6, 6, 6, 6, 6, 6, 6, 6];

% transporter definition
total_capacity = 11000;
num_decks = 4;
capacity = [3000, 3000, 1000, 4000];

% ways out of decks
num_ways_out = 2;
paths_out = array3d(decks, ways_out, decks, [
% ways out of deck d1
2, 4, 0, 0, 3, 4, 0, 0, 

% ways out of deck d2
4, 0, 0, 0, 0, 0, 0, 0,	

% ways out of deck d3
4, 0, 0, 0, 0, 0, 0, 0,	

% ways out of deck d4
0, 0, 0, 0,	0, 0, 0, 0,	

]);

